SumColouring/JavaBacktracker/RandomInstances/38_0.10_3.col
c File: instances/38_0.10_3.col
c
c Description: Random graph of size 38 vertices and P(0.1) of edges between any two vertices.
p col 38 703
e 1 10
e 1 19
e 1 26
e 1 28
e 1 37
e 2 12
e 3 4
e 3 9
e 3 13
e 3 18
e 3 36
e 4 7
e 4 35
e 5 7
e 5 14
e 5 16
e 6 11
e 6 14
e 6 20
e 6 38
e 7 8
e 7 12
e 7 34
e 8 11
e 8 21
e 8 30
e 9 11
e 9 14
e 9 20
e 9 23
e 9 24
e 9 31
e 10 12
e 11 13
e 11 20
e 11 22
e 11 23
e 11 32
e 12 13
e 12 16
e 12 25
e 13 19
e 14 15
e 14 24
e 14 29
e 14 35
e 15 16
e 16 23
e 16 30
e 17 18
e 17 28
e 17 30
e 17 36
e 18 32
e 18 36
e 19 21
e 19 33
e 20 26
e 20 30
e 20 34
e 21 23
e 22 24
e 23 24
e 23 31
e 23 34
e 23 36
e 28 29
e 28 31
e 28 37
e 30 33
e 31 36
e 32 38
e 34 37
e 35 37